14
1 17.20 96.29
2 16.53 97.38
3 19.41 97.13
4 25.23 97.24
5 16.47 96.10
6 22.39 93.37
7 14.05 98.12
8 22.00 96.05
9 21.52 95.59
10 16.30 97.38
11 20.47 97.02
12 16.47 94.44
13 20.09 94.55
14 20.09 92.54
